50 8
669 509
648 512
287 961
270 826
333 378
696 646
309 692
369 493
497 824
226 825
646 245
521 342
196 812
465 708
523 352
504 800
543 805
310 742
834 81
371 334
554 854
588 932
326 927
220 908
393 375
797 469
751 79
67 733
475 779
489 355
398 382
73 783
774 632
439 808
185 852
394 469
124 843
705 47
480 749
723 503
546 901
661 819
405 549
493 730
583 134
559 238
707 512
15 826
706 649
384 681
